(declare-fun x_5 () Bool)
(declare-fun x_4 () Bool)
(declare-fun x_3 () Bool)
(declare-fun x_13 () Bool)
(declare-fun x_12 () Bool)
(declare-fun x_10 () Bool)
(declare-fun x_8 () Bool)
(declare-fun x_6 () Bool)
(declare-fun x_17 () Bool)
(declare-fun x_15 () Bool)
(declare-fun x_9 () Bool)
(declare-fun x_20 () Bool)
(declare-fun x_16 () Bool)
(assert (and (or x_3 x_4 x_5) (not (and x_3 x_4 x_5))))
(assert (and (or x_4 x_3 x_5) (not (and x_4 x_3 x_5))))
(assert (and (or x_5 x_12 x_13) (not (and x_5 x_12 x_13))))
(assert (and (or x_6 x_8 x_10) (not (and x_6 x_8 x_10))))
(assert (and (or x_8 x_6 x_10) (not (and x_8 x_6 x_10))))
(assert (and (or x_8 x_15 x_17) (not (and x_8 x_15 x_17))))
(assert (and (or x_9 x_12 x_15) (not (and x_9 x_12 x_15))))
(assert (and (or x_12 x_5 x_13) (not (and x_12 x_5 x_13))))
(assert (and (or x_12 x_9 x_15) (not (and x_12 x_9 x_15))))
(assert (and (or x_12 x_16 x_20) (not (and x_12 x_16 x_20))))
(assert (and (or x_15 x_8 x_17) (not (and x_15 x_8 x_17))))
(assert (and (or x_16 x_12 x_20) (not (and x_16 x_12 x_20))))
(check-sat)